m = 6; % number of couriers
n = 8; % number of packages

l = [12, 18, 8, 14, 14, 16]; % maximum carriable weight per courier
s = [7, 7, 6, 8, 7, 5, 7, 3]; % weight of each package

D = % distance matrix 
	 [| 3, 7, 3, 11, 12, 3, 8, 4, 6
	 | 12, 8, 12, 5, 12, 12, 7, 9, 11
	 | 4, 5, 7, 9, 10, 9, 9, 9, 7
	 | 5, 11, 6, 3, 8, 3, 7, 4, 7
	 | 8, 9, 12, 6, 3, 12, 7, 3, 9
	 | 3, 8, 7, 9, 12, 7, 10, 11, 11
	 | 4, 11, 6, 3, 7, 7, 8, 10, 11
	 | 10, 11, 3, 9, 4, 11, 12, 10, 7
	 | 11, 9, 8, 6, 8, 8, 4, 5, 8
	 |];